
(set-logic HORN)
(declare-fun Z_702 () Int)
(declare-fun S_206 (Int) Int)
(declare-fun diseqInt (Int Int) Bool)
(declare-fun unS_249 (Int Int) Bool)
(declare-fun isZ_197 (Int) Bool)
(declare-fun isS_197 (Int) Bool)
(assert (forall ((x_18117 Int))
	(unS_249 x_18117 (S_206 x_18117))))
(assert (isZ_197 Z_702))
(assert (forall ((x_18119 Int))
	(isS_197 (S_206 x_18119))))
(assert (forall ((x_18120 Int))
	(diseqInt Z_702 (S_206 x_18120))))
(assert (forall ((x_18121 Int))
	(diseqInt (S_206 x_18121) Z_702)))
(assert (forall ((x_18122 Int) (x_18123 Int))
	(=> (diseqInt x_18122 x_18123) (diseqInt (S_206 x_18122) (S_206 x_18123)))))
(declare-fun add_129 (Int Int Int) Bool)
(declare-fun minus_127 (Int Int Int) Bool)
(declare-fun le_124 (Int Int) Bool)
(declare-fun ge_124 (Int Int) Bool)
(declare-fun lt_128 (Int Int) Bool)
(declare-fun gt_125 (Int Int) Bool)
(declare-fun mult_124 (Int Int Int) Bool)
(declare-fun div_124 (Int Int Int) Bool)
(declare-fun mod_124 (Int Int Int) Bool)
(assert (forall ((y_686 Int))
	(add_129 y_686 Z_702 y_686)))
(assert (forall ((x_18110 Int) (y_686 Int) (r_145 Int))
	(=> (add_129 r_145 x_18110 y_686) (add_129 (S_206 r_145) (S_206 x_18110) y_686))))
(assert (forall ((y_686 Int))
	(minus_127 Z_702 Z_702 y_686)))
(assert (forall ((x_18110 Int) (y_686 Int) (r_145 Int))
	(=> (minus_127 r_145 x_18110 y_686) (minus_127 (S_206 r_145) (S_206 x_18110) y_686))))
(assert (forall ((y_686 Int))
	(le_124 Z_702 y_686)))
(assert (forall ((x_18110 Int) (y_686 Int))
	(=> (le_124 x_18110 y_686) (le_124 (S_206 x_18110) (S_206 y_686)))))
(assert (forall ((y_686 Int))
	(ge_124 y_686 Z_702)))
(assert (forall ((x_18110 Int) (y_686 Int))
	(=> (ge_124 x_18110 y_686) (ge_124 (S_206 x_18110) (S_206 y_686)))))
(assert (forall ((y_686 Int))
	(lt_128 Z_702 (S_206 y_686))))
(assert (forall ((x_18110 Int) (y_686 Int))
	(=> (lt_128 x_18110 y_686) (lt_128 (S_206 x_18110) (S_206 y_686)))))
(assert (forall ((y_686 Int))
	(gt_125 (S_206 y_686) Z_702)))
(assert (forall ((x_18110 Int) (y_686 Int))
	(=> (gt_125 x_18110 y_686) (gt_125 (S_206 x_18110) (S_206 y_686)))))
(assert (forall ((y_686 Int))
	(mult_124 Z_702 Z_702 y_686)))
(assert (forall ((x_18110 Int) (y_686 Int) (r_145 Int) (z_703 Int))
	(=> (and (mult_124 r_145 x_18110 y_686) (add_129 z_703 r_145 y_686)) (mult_124 z_703 (S_206 x_18110) y_686))))
(assert (forall ((x_18110 Int) (y_686 Int))
	(=> (lt_128 x_18110 y_686) (div_124 Z_702 x_18110 y_686))))
(assert (forall ((x_18110 Int) (y_686 Int) (r_145 Int) (z_703 Int))
	(=> (and (ge_124 x_18110 y_686) (minus_127 z_703 x_18110 y_686) (div_124 r_145 z_703 y_686)) (div_124 (S_206 r_145) x_18110 y_686))))
(assert (forall ((x_18110 Int) (y_686 Int))
	(=> (lt_128 x_18110 y_686) (mod_124 x_18110 x_18110 y_686))))
(assert (forall ((x_18110 Int) (y_686 Int) (r_145 Int) (z_703 Int))
	(=> (and (ge_124 x_18110 y_686) (minus_127 z_703 x_18110 y_686) (mod_124 r_145 z_703 y_686)) (mod_124 r_145 x_18110 y_686))))
(declare-datatypes ((list_91 0)) (((nil_98) (cons_91 (head_182 Int) (tail_182 list_91)))))
(declare-fun diseqlist_91 (list_91 list_91) Bool)
(declare-fun head_183 (Int list_91) Bool)
(declare-fun tail_183 (list_91 list_91) Bool)
(declare-fun isnil_98 (list_91) Bool)
(declare-fun iscons_91 (list_91) Bool)
(assert (forall ((x_18125 Int) (x_18126 list_91))
	(head_183 x_18125 (cons_91 x_18125 x_18126))))
(assert (forall ((x_18125 Int) (x_18126 list_91))
	(tail_183 x_18126 (cons_91 x_18125 x_18126))))
(assert (isnil_98 nil_98))
(assert (forall ((x_18128 Int) (x_18129 list_91))
	(iscons_91 (cons_91 x_18128 x_18129))))
(assert (forall ((x_18130 Int) (x_18131 list_91))
	(diseqlist_91 nil_98 (cons_91 x_18130 x_18131))))
(assert (forall ((x_18132 Int) (x_18133 list_91))
	(diseqlist_91 (cons_91 x_18132 x_18133) nil_98)))
(assert (forall ((x_18134 Int) (x_18135 list_91) (x_18136 Int) (x_18137 list_91))
	(=> (diseqInt x_18134 x_18136) (diseqlist_91 (cons_91 x_18134 x_18135) (cons_91 x_18136 x_18137)))))
(assert (forall ((x_18134 Int) (x_18135 list_91) (x_18136 Int) (x_18137 list_91))
	(=> (diseqlist_91 x_18135 x_18137) (diseqlist_91 (cons_91 x_18134 x_18135) (cons_91 x_18136 x_18137)))))
(declare-datatypes ((pair_30 0)) (((pair_31 (projpair_60 list_91) (projpair_61 list_91)))))
(declare-fun diseqpair_15 (pair_30 pair_30) Bool)
(declare-fun projpair_62 (list_91 pair_30) Bool)
(declare-fun projpair_63 (list_91 pair_30) Bool)
(declare-fun ispair_15 (pair_30) Bool)
(assert (forall ((x_18138 list_91) (x_18139 list_91))
	(projpair_62 x_18138 (pair_31 x_18138 x_18139))))
(assert (forall ((x_18138 list_91) (x_18139 list_91))
	(projpair_63 x_18139 (pair_31 x_18138 x_18139))))
(assert (forall ((x_18141 list_91) (x_18142 list_91))
	(ispair_15 (pair_31 x_18141 x_18142))))
(assert (forall ((x_18143 list_91) (x_18144 list_91) (x_18145 list_91) (x_18146 list_91))
	(=> (diseqlist_91 x_18143 x_18145) (diseqpair_15 (pair_31 x_18143 x_18144) (pair_31 x_18145 x_18146)))))
(assert (forall ((x_18143 list_91) (x_18144 list_91) (x_18145 list_91) (x_18146 list_91))
	(=> (diseqlist_91 x_18144 x_18146) (diseqpair_15 (pair_31 x_18143 x_18144) (pair_31 x_18145 x_18146)))))
(declare-fun take_20 (list_91 Int list_91) Bool)
(assert (forall ((x_18039 Int) (y_675 list_91))
	(=> (le_124 x_18039 Z_702) (take_20 nil_98 x_18039 y_675))))
(assert (forall ((x_18111 Int) (x_18057 list_91) (z_697 Int) (xs_209 list_91) (x_18039 Int))
	(=> (and (gt_125 x_18039 Z_702) (take_20 x_18057 x_18111 xs_209) (minus_127 x_18111 x_18039 (S_206 Z_702))) (take_20 (cons_91 z_697 x_18057) x_18039 (cons_91 z_697 xs_209)))))
(assert (forall ((x_18039 Int) (y_675 list_91))
	(=> (le_124 x_18039 Z_702) (take_20 nil_98 x_18039 y_675))))
(assert (forall ((x_18039 Int))
	(=> (gt_125 x_18039 Z_702) (take_20 nil_98 x_18039 nil_98))))
(declare-fun sort_9 (list_91 Int Int) Bool)
(assert (forall ((x_18040 Int) (y_676 Int))
	(=> (le_124 x_18040 y_676) (sort_9 (cons_91 x_18040 (cons_91 y_676 nil_98)) x_18040 y_676))))
(assert (forall ((x_18040 Int) (y_676 Int))
	(=> (gt_125 x_18040 y_676) (sort_9 (cons_91 y_676 (cons_91 x_18040 nil_98)) x_18040 y_676))))
(declare-fun length_7 (Int list_91) Bool)
(assert (forall ((x_18062 Int) (x_18063 Int) (y_677 Int) (l_9 list_91))
	(=> (and (length_7 x_18063 l_9) (add_129 x_18062 (S_206 Z_702) x_18063)) (length_7 x_18062 (cons_91 y_677 l_9)))))
(assert (length_7 Z_702 nil_98))
(declare-fun insert_5 (list_91 Int list_91) Bool)
(assert (forall ((z_698 Int) (xs_210 list_91) (x_18042 Int))
	(=> (le_124 x_18042 z_698) (insert_5 (cons_91 x_18042 (cons_91 z_698 xs_210)) x_18042 (cons_91 z_698 xs_210)))))
(assert (forall ((x_18067 list_91) (z_698 Int) (xs_210 list_91) (x_18042 Int))
	(=> (and (gt_125 x_18042 z_698) (insert_5 x_18067 x_18042 xs_210)) (insert_5 (cons_91 z_698 x_18067) x_18042 (cons_91 z_698 xs_210)))))
(assert (forall ((x_18042 Int))
	(insert_5 (cons_91 x_18042 nil_98) x_18042 nil_98)))
(declare-fun isort_5 (list_91 list_91) Bool)
(assert (forall ((x_18069 list_91) (x_18070 list_91) (y_679 Int) (xs_211 list_91))
	(=> (and (isort_5 x_18070 xs_211) (insert_5 x_18069 y_679 x_18070)) (isort_5 x_18069 (cons_91 y_679 xs_211)))))
(assert (isort_5 nil_98 nil_98))
(declare-fun drop_22 (list_91 Int list_91) Bool)
(assert (forall ((x_18073 list_91) (x_18044 Int))
	(=> (le_124 x_18044 Z_702) (drop_22 x_18073 x_18044 x_18073))))
(assert (forall ((x_18113 Int) (x_18074 list_91) (z_699 Int) (xs_212 list_91) (x_18044 Int))
	(=> (and (gt_125 x_18044 Z_702) (drop_22 x_18074 x_18113 xs_212) (minus_127 x_18113 x_18044 (S_206 Z_702))) (drop_22 x_18074 x_18044 (cons_91 z_699 xs_212)))))
(assert (forall ((x_18076 list_91) (x_18044 Int))
	(=> (le_124 x_18044 Z_702) (drop_22 x_18076 x_18044 x_18076))))
(assert (forall ((x_18044 Int))
	(=> (gt_125 x_18044 Z_702) (drop_22 nil_98 x_18044 nil_98))))
(declare-fun splitAt_4 (pair_30 Int list_91) Bool)
(assert (forall ((x_18079 list_91) (x_18080 list_91) (x_18045 Int) (y_681 list_91))
	(=> (and (take_20 x_18079 x_18045 y_681) (drop_22 x_18080 x_18045 y_681)) (splitAt_4 (pair_31 x_18079 x_18080) x_18045 y_681))))
(declare-fun x_18046 (list_91 list_91 list_91) Bool)
(assert (forall ((x_18082 list_91) (z_700 Int) (xs_213 list_91) (y_682 list_91))
	(=> (x_18046 x_18082 xs_213 y_682) (x_18046 (cons_91 z_700 x_18082) (cons_91 z_700 xs_213) y_682))))
(assert (forall ((x_18083 list_91))
	(x_18046 x_18083 nil_98 x_18083)))
(declare-fun reverse_4 (list_91 list_91) Bool)
(assert (forall ((x_18084 list_91) (x_18085 list_91) (y_683 Int) (xs_214 list_91))
	(=> (and (reverse_4 x_18085 xs_214) (x_18046 x_18084 x_18085 (cons_91 y_683 nil_98))) (reverse_4 x_18084 (cons_91 y_683 xs_214)))))
(assert (reverse_4 nil_98 nil_98))
(declare-fun stoogesort_6 (list_91 list_91) Bool)
(declare-fun stoogesort_7 (list_91 list_91) Bool)
(declare-fun stoogesort_8 (list_91 list_91) Bool)
(assert (forall ((x_18114 Int) (x_18091 list_91) (x_18092 list_91) (x_18093 list_91) (x_18088 Int) (x_18089 list_91) (ys_54 list_91) (zs_13 list_91) (x_18049 list_91))
	(=> (and (stoogesort_7 x_18092 zs_13) (reverse_4 x_18093 ys_54) (x_18046 x_18091 x_18092 x_18093) (length_7 x_18088 x_18049) (reverse_4 x_18089 x_18049) (splitAt_4 (pair_31 ys_54 zs_13) x_18114 x_18089) (div_124 x_18114 x_18088 (S_206 (S_206 (S_206 Z_702))))) (stoogesort_6 x_18091 x_18049))))
(assert (forall ((x_18095 list_91) (x_18096 list_91) (x_18097 list_91) (x_18052 Int) (x_18053 list_91) (y_685 Int) (y_684 Int))
	(=> (and (stoogesort_6 x_18096 (cons_91 y_684 (cons_91 y_685 (cons_91 x_18052 x_18053)))) (stoogesort_8 x_18097 x_18096) (stoogesort_6 x_18095 x_18097)) (stoogesort_7 x_18095 (cons_91 y_684 (cons_91 y_685 (cons_91 x_18052 x_18053)))))))
(assert (forall ((x_18099 list_91) (y_685 Int) (y_684 Int))
	(=> (sort_9 x_18099 y_684 y_685) (stoogesort_7 x_18099 (cons_91 y_684 (cons_91 y_685 nil_98))))))
(assert (forall ((y_684 Int))
	(stoogesort_7 (cons_91 y_684 nil_98) (cons_91 y_684 nil_98))))
(assert (stoogesort_7 nil_98 nil_98))
(assert (forall ((x_18115 Int) (x_18105 list_91) (x_18106 list_91) (x_18103 Int) (ys_55 list_91) (zs_14 list_91) (x_18054 list_91))
	(=> (and (stoogesort_7 x_18106 zs_14) (x_18046 x_18105 ys_55 x_18106) (length_7 x_18103 x_18054) (splitAt_4 (pair_31 ys_55 zs_14) x_18115 x_18054) (div_124 x_18115 x_18103 (S_206 (S_206 (S_206 Z_702))))) (stoogesort_8 x_18105 x_18054))))
(assert (forall ((x_18108 list_91) (x_18109 list_91) (xs_215 list_91))
	(=> (and true (diseqlist_91 x_18108 x_18109) (stoogesort_7 x_18108 xs_215) (isort_5 x_18109 xs_215)) false)))
(check-sat)
